p cnf 265 1389
108 145 180 0
56 87 114 0
215 228 0
137 138 165 174 0
91 93 117 135 155 0
112 133 172 189 0
73 95 100 158 0
40 106 126 148 0
59 153 198 0
98 127 147 201 0
88 103 152 0
82 157 162 168 0
101 140 161 166 0
42 92 136 156 0
85 111 176 177 0
77 79 97 125 159 0
71 75 0
62 66 68 69 139 0
31 60 142 143 0
53 55 86 151 0
52 80 122 0
48 50 121 0
44 46 0
43 84 131 173 0
70 72 0
35 36 37 39 0
61 65 67 0
32 33 58 105 0
27 89 0
47 120 124 129 0
20 21 23 24 26 0
14 17 102 0
13 116 134 0
41 110 130 170 0
9 10 12 38 0
30 63 0
57 178 203 0
51 179 181 0
49 184 0
160 182 0
186 223 239 253 0
132 164 175 0
171 188 190 0
107 149 193 0
191 194 0
154 197 199 0
128 146 202 0
-64 -204 0
-114 -204 0
-54 -204 0
-123 -204 0
-137 -204 0
-64 -114 0
-54 -64 0
-64 -123 0
-64 -137 0
-54 -114 0
-114 -123 0
-114 -137 0
-54 -123 0
-54 -137 0
-123 -137 0
-117 -206 0
-100 -206 0
-126 -206 0
-206 -207 0
-206 -208 0
-100 -117 0
-117 -126 0
-117 -207 0
-117 -208 0
-100 -126 0
-100 -207 0
-100 -208 0
-126 -207 0
-126 -208 0
-207 -208 0
-82 -88 0
-22 -88 0
-88 -101 0
-88 -209 0
-88 -125 0
-22 -82 0
-82 -101 0
-82 -209 0
-82 -125 0
-22 -101 0
-22 -209 0
-22 -125 0
-101 -209 0
-101 -125 0
-125 -209 0
-11 -75 0
-31 -75 0
-75 -118 0
-55 -75 0
-75 -211 0
-11 -31 0
-11 -118 0
-11 -55 0
-11 -211 0
-31 -118 0
-31 -55 0
-31 -211 0
-55 -118 0
-118 -211 0
-55 -211 0
-27 -150 0
-124 -150 0
-26 -150 0
-17 -150 0
-150 -170 0
-27 -124 0
-26 -27 0
-17 -27 0
-27 -170 0
-26 -124 0
-17 -124 0
-124 -170 0
-17 -26 0
-26 -170 0
-17 -170 0
-49 -212 0
-45 -49 0
-49 -186 0
-49 -132 0
-49 -188 0
-45 -212 0
-186 -212 0
-132 -212 0
-188 -212 0
-45 -186 0
-45 -132 0
-45 -188 0
-132 -186 0
-186 -188 0
-132 -188 0
-204 -206 0
-88 -204 0
-75 -204 0
-150 -204 0
-49 -204 0
-88 -206 0
-75 -206 0
-150 -206 0
-49 -206 0
-75 -88 0
-88 -150 0
-49 -88 0
-75 -150 0
-49 -75 0
-49 -150 0
-64 -117 0
-64 -82 0
-11 -64 0
-27 -64 0
-64 -212 0
-82 -117 0
-11 -117 0
-27 -117 0
-117 -212 0
-11 -82 0
-27 -82 0
-82 -212 0
-11 -27 0
-11 -212 0
-27 -212 0
-100 -114 0
-22 -114 0
-31 -114 0
-114 -124 0
-45 -114 0
-22 -100 0
-31 -100 0
-100 -124 0
-45 -100 0
-22 -31 0
-22 -124 0
-22 -45 0
-31 -124 0
-31 -45 0
-45 -124 0
-54 -126 0
-54 -101 0
-54 -118 0
-26 -54 0
-54 -186 0
-101 -126 0
-118 -126 0
-26 -126 0
-126 -186 0
-101 -118 0
-26 -101 0
-101 -186 0
-26 -118 0
-118 -186 0
-26 -186 0
-123 -207 0
-123 -209 0
-55 -123 0
-17 -123 0
-123 -132 0
-207 -209 0
-55 -207 0
-17 -207 0
-132 -207 0
-55 -209 0
-17 -209 0
-132 -209 0
-17 -55 0
-55 -132 0
-17 -132 0
-137 -208 0
-125 -137 0
-137 -211 0
-137 -170 0
-137 -188 0
-125 -208 0
-208 -211 0
-170 -208 0
-188 -208 0
-125 -211 0
-125 -170 0
-125 -188 0
-170 -211 0
-188 -211 0
-170 -188 0
-69 -109 0
-69 -86 0
-69 -80 0
-86 -109 0
-80 -109 0
-80 -86 0
-113 -214 0
-72 -214 0
-39 -214 0
-72 -113 0
-39 -113 0
-39 -72 0
-24 -200 0
-14 -200 0
-167 -200 0
-14 -24 0
-24 -167 0
-14 -167 0
-12 -63 0
-12 -144 0
-12 -203 0
-63 -144 0
-63 -203 0
-144 -203 0
-69 -214 0
-69 -200 0
-12 -69 0
-200 -214 0
-12 -214 0
-12 -200 0
-109 -113 0
-24 -109 0
-63 -109 0
-24 -113 0
-63 -113 0
-24 -63 0
-72 -86 0
-14 -86 0
-86 -144 0
-14 -72 0
-72 -144 0
-14 -144 0
-39 -80 0
-80 -167 0
-80 -203 0
-39 -167 0
-39 -203 0
-167 -203 0
-133 -135 0
-135 -158 0
-135 -217 0
-133 -158 0
-133 -217 0
-158 -217 0
-68 -218 0
-60 -218 0
-185 -218 0
-60 -68 0
-68 -185 0
-60 -185 0
-46 -219 0
-43 -46 0
-33 -46 0
-43 -219 0
-33 -219 0
-33 -43 0
-38 -220 0
-220 -221 0
-179 -220 0
-38 -221 0
-38 -179 0
-179 -221 0
-135 -218 0
-46 -135 0
-135 -220 0
-46 -218 0
-218 -220 0
-46 -220 0
-68 -133 0
-133 -219 0
-38 -133 0
-68 -219 0
-38 -68 0
-38 -219 0
-60 -158 0
-43 -158 0
-158 -221 0
-43 -60 0
-60 -221 0
-43 -221 0
-185 -217 0
-33 -217 0
-179 -217 0
-33 -185 0
-179 -185 0
-33 -179 0
-145 -222 0
-222 -225 0
-222 -228 0
-222 -224 0
-174 -222 0
-145 -225 0
-145 -228 0
-145 -224 0
-145 -174 0
-225 -228 0
-224 -225 0
-174 -225 0
-224 -228 0
-174 -228 0
-174 -224 0
-172 -227 0
-106 -227 0
-153 -227 0
-201 -227 0
-196 -227 0
-106 -172 0
-153 -172 0
-172 -201 0
-172 -196 0
-106 -153 0
-106 -201 0
-106 -196 0
-153 -201 0
-153 -196 0
-196 -201 0
-152 -249 0
-140 -152 0
-136 -152 0
-111 -152 0
-152 -159 0
-140 -249 0
-136 -249 0
-111 -249 0
-159 -249 0
-136 -140 0
-111 -140 0
-140 -159 0
-111 -136 0
-136 -159 0
-111 -159 0
-66 -71 0
-71 -230 0
-52 -71 0
-50 -71 0
-71 -231 0
-66 -230 0
-52 -66 0
-50 -66 0
-66 -231 0
-52 -230 0
-50 -230 0
-230 -231 0
-50 -52 0
-52 -231 0
-50 -231 0
-232 -233 0
-232 -235 0
-37 -232 0
-67 -232 0
-58 -232 0
-233 -235 0
-37 -233 0
-67 -233 0
-58 -233 0
-37 -235 0
-67 -235 0
-58 -235 0
-37 -67 0
-37 -58 0
-58 -67 0
-99 -104 0
-23 -99 0
-99 -236 0
-99 -116 0
-41 -99 0
-23 -104 0
-104 -236 0
-104 -116 0
-41 -104 0
-23 -236 0
-23 -116 0
-23 -41 0
-116 -236 0
-41 -236 0
-41 -116 0
-222 -227 0
-152 -222 0
-71 -222 0
-222 -232 0
-99 -222 0
-152 -227 0
-71 -227 0
-227 -232 0
-99 -227 0
-71 -152 0
-152 -232 0
-99 -152 0
-71 -232 0
-71 -99 0
-99 -232 0
-145 -172 0
-145 -249 0
-66 -145 0
-145 -233 0
-104 -145 0
-172 -249 0
-66 -172 0
-172 -233 0
-104 -172 0
-66 -249 0
-233 -249 0
-104 -249 0
-66 -233 0
-66 -104 0
-104 -233 0
-106 -225 0
-140 -225 0
-225 -230 0
-225 -235 0
-23 -225 0
-106 -140 0
-106 -230 0
-106 -235 0
-23 -106 0
-140 -230 0
-140 -235 0
-23 -140 0
-230 -235 0
-23 -230 0
-23 -235 0
-153 -228 0
-136 -228 0
-52 -228 0
-37 -228 0
-228 -236 0
-136 -153 0
-52 -153 0
-37 -153 0
-153 -236 0
-52 -136 0
-37 -136 0
-136 -236 0
-37 -52 0
-52 -236 0
-37 -236 0
-201 -224 0
-111 -224 0
-50 -224 0
-67 -224 0
-116 -224 0
-111 -201 0
-50 -201 0
-67 -201 0
-116 -201 0
-50 -111 0
-67 -111 0
-111 -116 0
-50 -67 0
-50 -116 0
-67 -116 0
-174 -196 0
-159 -174 0
-174 -231 0
-58 -174 0
-41 -174 0
-159 -196 0
-196 -231 0
-58 -196 0
-41 -196 0
-159 -231 0
-58 -159 0
-41 -159 0
-58 -231 0
-41 -231 0
-41 -58 0
-180 -237 0
-56 -237 0
-237 -241 0
-183 -237 0
-237 -240 0
-165 -237 0
-56 -180 0
-180 -241 0
-180 -183 0
-180 -240 0
-165 -180 0
-56 -241 0
-56 -183 0
-56 -240 0
-56 -165 0
-183 -241 0
-240 -241 0
-165 -241 0
-183 -240 0
-165 -183 0
-165 -240 0
-93 -189 0
-93 -95 0
-93 -148 0
-93 -192 0
-93 -147 0
-29 -93 0
-95 -189 0
-148 -189 0
-189 -192 0
-147 -189 0
-29 -189 0
-95 -148 0
-95 -192 0
-95 -147 0
-29 -95 0
-148 -192 0
-147 -148 0
-29 -148 0
-147 -192 0
-29 -192 0
-29 -147 0
-162 -244 0
-18 -162 0
-161 -162 0
-162 -243 0
-162 -176 0
-79 -162 0
-18 -244 0
-161 -244 0
-243 -244 0
-176 -244 0
-79 -244 0
-18 -161 0
-18 -243 0
-18 -176 0
-18 -79 0
-161 -243 0
-161 -176 0
-79 -161 0
-176 -243 0
-79 -243 0
-79 -176 0
-139 -246 0
-142 -246 0
-246 -247 0
-151 -246 0
-48 -246 0
-213 -246 0
-139 -142 0
-139 -247 0
-139 -151 0
-48 -139 0
-139 -213 0
-142 -247 0
-142 -151 0
-48 -142 0
-142 -213 0
-151 -247 0
-48 -247 0
-213 -247 0
-48 -151 0
-151 -213 0
-48 -213 0
-44 -187 0
-44 -131 0
-44 -248 0
-44 -70 0
-44 -65 0
-32 -44 0
-131 -187 0
-187 -248 0
-70 -187 0
-65 -187 0
-32 -187 0
-131 -248 0
-70 -131 0
-65 -131 0
-32 -131 0
-70 -248 0
-65 -248 0
-32 -248 0
-65 -70 0
-32 -70 0
-32 -65 0
-160 -226 0
-226 -229 0
-223 -226 0
-175 -226 0
-78 -226 0
-171 -226 0
-160 -229 0
-160 -223 0
-160 -175 0
-78 -160 0
-160 -171 0
-223 -229 0
-175 -229 0
-78 -229 0
-171 -229 0
-175 -223 0
-78 -223 0
-171 -223 0
-78 -175 0
-171 -175 0
-78 -171 0
-107 -194 0
-107 -154 0
-107 -202 0
-107 -195 0
-107 -141 0
-107 -250 0
-154 -194 0
-194 -202 0
-194 -195 0
-141 -194 0
-194 -250 0
-154 -202 0
-154 -195 0
-141 -154 0
-154 -250 0
-195 -202 0
-141 -202 0
-202 -250 0
-141 -195 0
-195 -250 0
-141 -250 0
-93 -237 0
-162 -237 0
-237 -246 0
-44 -237 0
-226 -237 0
-107 -237 0
-93 -162 0
-93 -246 0
-44 -93 0
-93 -226 0
-93 -107 0
-162 -246 0
-44 -162 0
-162 -226 0
-107 -162 0
-44 -246 0
-226 -246 0
-107 -246 0
-44 -226 0
-44 -107 0
-107 -226 0
-180 -189 0
-180 -244 0
-139 -180 0
-180 -187 0
-160 -180 0
-180 -194 0
-189 -244 0
-139 -189 0
-187 -189 0
-160 -189 0
-189 -194 0
-139 -244 0
-187 -244 0
-160 -244 0
-194 -244 0
-139 -187 0
-139 -160 0
-139 -194 0
-160 -187 0
-187 -194 0
-160 -194 0
-56 -95 0
-18 -56 0
-56 -142 0
-56 -131 0
-56 -229 0
-56 -154 0
-18 -95 0
-95 -142 0
-95 -131 0
-95 -229 0
-95 -154 0
-18 -142 0
-18 -131 0
-18 -229 0
-18 -154 0
-131 -142 0
-142 -229 0
-142 -154 0
-131 -229 0
-131 -154 0
-154 -229 0
-148 -241 0
-161 -241 0
-241 -247 0
-241 -248 0
-223 -241 0
-202 -241 0
-148 -161 0
-148 -247 0
-148 -248 0
-148 -223 0
-148 -202 0
-161 -247 0
-161 -248 0
-161 -223 0
-161 -202 0
-247 -248 0
-223 -247 0
-202 -247 0
-223 -248 0
-202 -248 0
-202 -223 0
-183 -192 0
-183 -243 0
-151 -183 0
-70 -183 0
-175 -183 0
-183 -195 0
-192 -243 0
-151 -192 0
-70 -192 0
-175 -192 0
-192 -195 0
-151 -243 0
-70 -243 0
-175 -243 0
-195 -243 0
-70 -151 0
-151 -175 0
-151 -195 0
-70 -175 0
-70 -195 0
-175 -195 0
-147 -240 0
-176 -240 0
-48 -240 0
-65 -240 0
-78 -240 0
-141 -240 0
-147 -176 0
-48 -147 0
-65 -147 0
-78 -147 0
-141 -147 0
-48 -176 0
-65 -176 0
-78 -176 0
-141 -176 0
-48 -65 0
-48 -78 0
-48 -141 0
-65 -78 0
-65 -141 0
-78 -141 0
-29 -165 0
-79 -165 0
-165 -213 0
-32 -165 0
-165 -171 0
-165 -250 0
-29 -79 0
-29 -213 0
-29 -32 0
-29 -171 0
-29 -250 0
-79 -213 0
-32 -79 0
-79 -171 0
-79 -250 0
-32 -213 0
-171 -213 0
-213 -250 0
-32 -171 0
-32 -250 0
-171 -250 0
-108 -251 0
-87 -251 0
-81 -251 0
-251 -252 0
-215 -251 0
-251 -254 0
-138 -251 0
-87 -108 0
-81 -108 0
-108 -252 0
-108 -215 0
-108 -254 0
-108 -138 0
-81 -87 0
-87 -252 0
-87 -215 0
-87 -254 0
-87 -138 0
-81 -252 0
-81 -215 0
-81 -254 0
-81 -138 0
-215 -252 0
-252 -254 0
-138 -252 0
-215 -254 0
-138 -215 0
-138 -254 0
-91 -112 0
-73 -91 0
-40 -91 0
-91 -255 0
-91 -198 0
-91 -127 0
-91 -256 0
-73 -112 0
-40 -112 0
-112 -255 0
-112 -198 0
-112 -127 0
-112 -256 0
-40 -73 0
-73 -255 0
-73 -198 0
-73 -127 0
-73 -256 0
-40 -255 0
-40 -198 0
-40 -127 0
-40 -256 0
-198 -255 0
-127 -255 0
-255 -256 0
-127 -198 0
-198 -256 0
-127 -256 0
-25 -168 0
-15 -168 0
-166 -168 0
-168 -257 0
-92 -168 0
-85 -168 0
-97 -168 0
-15 -25 0
-25 -166 0
-25 -257 0
-25 -92 0
-25 -85 0
-25 -97 0
-15 -166 0
-15 -257 0
-15 -92 0
-15 -85 0
-15 -97 0
-166 -257 0
-92 -166 0
-85 -166 0
-97 -166 0
-92 -257 0
-85 -257 0
-97 -257 0
-85 -92 0
-92 -97 0
-85 -97 0
-62 -205 0
-143 -205 0
-115 -205 0
-53 -205 0
-122 -205 0
-121 -205 0
-205 -258 0
-62 -143 0
-62 -115 0
-53 -62 0
-62 -122 0
-62 -121 0
-62 -258 0
-115 -143 0
-53 -143 0
-122 -143 0
-121 -143 0
-143 -258 0
-53 -115 0
-115 -122 0
-115 -121 0
-115 -258 0
-53 -122 0
-53 -121 0
-53 -258 0
-121 -122 0
-122 -258 0
-121 -258 0
-83 -89 0
-47 -89 0
-21 -89 0
-89 -102 0
-89 -210 0
-89 -134 0
-89 -130 0
-47 -83 0
-21 -83 0
-83 -102 0
-83 -210 0
-83 -134 0
-83 -130 0
-21 -47 0
-47 -102 0
-47 -210 0
-47 -134 0
-47 -130 0
-21 -102 0
-21 -210 0
-21 -134 0
-21 -130 0
-102 -210 0
-102 -134 0
-102 -130 0
-134 -210 0
-130 -210 0
-130 -134 0
-10 -76 0
-76 -259 0
-30 -76 0
-76 -119 0
-57 -76 0
-76 -238 0
-76 -181 0
-10 -259 0
-10 -30 0
-10 -119 0
-10 -57 0
-10 -238 0
-10 -181 0
-30 -259 0
-119 -259 0
-57 -259 0
-238 -259 0
-181 -259 0
-30 -119 0
-30 -57 0
-30 -238 0
-30 -181 0
-57 -119 0
-119 -238 0
-119 -181 0
-57 -238 0
-57 -181 0
-181 -238 0
-182 -242 0
-242 -260 0
-239 -242 0
-164 -242 0
-96 -242 0
-94 -242 0
-190 -242 0
-182 -260 0
-182 -239 0
-164 -182 0
-96 -182 0
-94 -182 0
-182 -190 0
-239 -260 0
-164 -260 0
-96 -260 0
-94 -260 0
-190 -260 0
-164 -239 0
-96 -239 0
-94 -239 0
-190 -239 0
-96 -164 0
-94 -164 0
-164 -190 0
-94 -96 0
-96 -190 0
-94 -190 0
-149 -191 0
-149 -197 0
-146 -149 0
-28 -149 0
-19 -149 0
-149 -163 0
-149 -245 0
-191 -197 0
-146 -191 0
-28 -191 0
-19 -191 0
-163 -191 0
-191 -245 0
-146 -197 0
-28 -197 0
-19 -197 0
-163 -197 0
-197 -245 0
-28 -146 0
-19 -146 0
-146 -163 0
-146 -245 0
-19 -28 0
-28 -163 0
-28 -245 0
-19 -163 0
-19 -245 0
-163 -245 0
-91 -251 0
-168 -251 0
-205 -251 0
-89 -251 0
-76 -251 0
-242 -251 0
-149 -251 0
-91 -168 0
-91 -205 0
-89 -91 0
-76 -91 0
-91 -242 0
-91 -149 0
-168 -205 0
-89 -168 0
-76 -168 0
-168 -242 0
-149 -168 0
-89 -205 0
-76 -205 0
-205 -242 0
-149 -205 0
-76 -89 0
-89 -242 0
-89 -149 0
-76 -242 0
-76 -149 0
-149 -242 0
-108 -112 0
-25 -108 0
-62 -108 0
-83 -108 0
-10 -108 0
-108 -182 0
-108 -191 0
-25 -112 0
-62 -112 0
-83 -112 0
-10 -112 0
-112 -182 0
-112 -191 0
-25 -62 0
-25 -83 0
-10 -25 0
-25 -182 0
-25 -191 0
-62 -83 0
-10 -62 0
-62 -182 0
-62 -191 0
-10 -83 0
-83 -182 0
-83 -191 0
-10 -182 0
-10 -191 0
-182 -191 0
-73 -87 0
-15 -87 0
-87 -143 0
-47 -87 0
-87 -259 0
-87 -260 0
-87 -197 0
-15 -73 0
-73 -143 0
-47 -73 0
-73 -259 0
-73 -260 0
-73 -197 0
-15 -143 0
-15 -47 0
-15 -259 0
-15 -260 0
-15 -197 0
-47 -143 0
-143 -259 0
-143 -260 0
-143 -197 0
-47 -259 0
-47 -260 0
-47 -197 0
-259 -260 0
-197 -259 0
-197 -260 0
-40 -81 0
-81 -166 0
-81 -115 0
-21 -81 0
-30 -81 0
-81 -239 0
-81 -146 0
-40 -166 0
-40 -115 0
-21 -40 0
-30 -40 0
-40 -239 0
-40 -146 0
-115 -166 0
-21 -166 0
-30 -166 0
-166 -239 0
-146 -166 0
-21 -115 0
-30 -115 0
-115 -239 0
-115 -146 0
-21 -30 0
-21 -239 0
-21 -146 0
-30 -239 0
-30 -146 0
-146 -239 0
-252 -255 0
-252 -257 0
-53 -252 0
-102 -252 0
-119 -252 0
-164 -252 0
-28 -252 0
-255 -257 0
-53 -255 0
-102 -255 0
-119 -255 0
-164 -255 0
-28 -255 0
-53 -257 0
-102 -257 0
-119 -257 0
-164 -257 0
-28 -257 0
-53 -102 0
-53 -119 0
-53 -164 0
-28 -53 0
-102 -119 0
-102 -164 0
-28 -102 0
-119 -164 0
-28 -119 0
-28 -164 0
-198 -215 0
-92 -215 0
-122 -215 0
-210 -215 0
-57 -215 0
-96 -215 0
-19 -215 0
-92 -198 0
-122 -198 0
-198 -210 0
-57 -198 0
-96 -198 0
-19 -198 0
-92 -122 0
-92 -210 0
-57 -92 0
-92 -96 0
-19 -92 0
-122 -210 0
-57 -122 0
-96 -122 0
-19 -122 0
-57 -210 0
-96 -210 0
-19 -210 0
-57 -96 0
-19 -57 0
-19 -96 0
-127 -254 0
-85 -254 0
-121 -254 0
-134 -254 0
-238 -254 0
-94 -254 0
-163 -254 0
-85 -127 0
-121 -127 0
-127 -134 0
-127 -238 0
-94 -127 0
-127 -163 0
-85 -121 0
-85 -134 0
-85 -238 0
-85 -94 0
-85 -163 0
-121 -134 0
-121 -238 0
-94 -121 0
-121 -163 0
-134 -238 0
-94 -134 0
-134 -163 0
-94 -238 0
-163 -238 0
-94 -163 0
-138 -256 0
-97 -138 0
-138 -258 0
-130 -138 0
-138 -181 0
-138 -190 0
-138 -245 0
-97 -256 0
-256 -258 0
-130 -256 0
-181 -256 0
-190 -256 0
-245 -256 0
-97 -258 0
-97 -130 0
-97 -181 0
-97 -190 0
-97 -245 0
-130 -258 0
-181 -258 0
-190 -258 0
-245 -258 0
-130 -181 0
-130 -190 0
-130 -245 0
-181 -190 0
-181 -245 0
-190 -245 0
-84 -261 0
-36 -84 0
-61 -84 0
-36 -261 0
-61 -261 0
-36 -61 0
-20 -120 0
-120 -262 0
-13 -120 0
-20 -262 0
-13 -20 0
-13 -262 0
-216 -253 0
-74 -216 0
-90 -216 0
-74 -253 0
-90 -253 0
-74 -90 0
-128 -199 0
-16 -199 0
-169 -199 0
-16 -128 0
-128 -169 0
-16 -169 0
-84 -120 0
-84 -216 0
-84 -199 0
-120 -216 0
-120 -199 0
-199 -216 0
-20 -261 0
-253 -261 0
-128 -261 0
-20 -253 0
-20 -128 0
-128 -253 0
-36 -262 0
-36 -74 0
-16 -36 0
-74 -262 0
-16 -262 0
-16 -74 0
-13 -61 0
-61 -90 0
-61 -169 0
-13 -90 0
-13 -169 0
-90 -169 0
-155 -234 0
-59 -234 0
-98 -234 0
-59 -155 0
-98 -155 0
-59 -98 0
-103 -157 0
-42 -103 0
-103 -177 0
-42 -157 0
-157 -177 0
-42 -177 0
-184 -263 0
-184 -264 0
-184 -265 0
-263 -264 0
-263 -265 0
-264 -265 0
-34 -193 0
-8 -34 0
-7 -34 0
-8 -193 0
-7 -193 0
-7 -8 0
-103 -234 0
-184 -234 0
-34 -234 0
-103 -184 0
-34 -103 0
-34 -184 0
-155 -157 0
-155 -263 0
-155 -193 0
-157 -263 0
-157 -193 0
-193 -263 0
-42 -59 0
-59 -264 0
-8 -59 0
-42 -264 0
-8 -42 0
-8 -264 0
-98 -177 0
-98 -265 0
-7 -98 0
-177 -265 0
-7 -177 0
-7 -265 0
-5 -6 0
-6 -156 0
-6 -77 0
-5 -156 0
-5 -77 0
-77 -156 0
-4 -173 0
-4 -35 0
-4 -105 0
-35 -173 0
-105 -173 0
-35 -105 0
-3 -129 0
-2 -3 0
-3 -110 0
-2 -129 0
-110 -129 0
-2 -110 0
-1 -9 0
-9 -178 0
-9 -51 0
-1 -178 0
-1 -51 0
-51 -178 0
-4 -6 0
-3 -6 0
-6 -9 0
-3 -4 0
-4 -9 0
-3 -9 0
-5 -173 0
-5 -129 0
-1 -5 0
-129 -173 0
-1 -173 0
-1 -129 0
-35 -156 0
-2 -156 0
-156 -178 0
-2 -35 0
-35 -178 0
-2 -178 0
-77 -105 0
-77 -110 0
-51 -77 0
-105 -110 0
-51 -105 0
-51 -110 0
